WARNING! DIMACS header mismatch: wrong number of variables.
WARNING! DIMACS header mismatch: wrong number of clauses.
WARNING: for repeatability, setting FPU to use double precision
============================[ Problem Statistics ]=============================
|                                                                             |
|  Number of variables:          3796                                         |
|  Number of clauses:            9391                                         |
|  Parse time:                   0.00 s                                       |
|                                                                             |
============================[ Search Statistics ]==============================
| Conflicts |          ORIGINAL         |          LEARNT          | Progress |
|           |    Vars  Clauses Literals |    Limit  Clauses Lit/Cl |          |
===============================================================================
|       100 |    3795     9283    37899 |     3403      100      6 |  0.026 % |
|       250 |    3791     9283    37899 |     3744      246      7 |  0.133 % |
|       475 |    3777     9253    37809 |     4118      434      8 |  0.501 % |
|       812 |    3773     9243    37779 |     4530      763      7 |  0.607 % |
|      1318 |    3767     9231    37743 |     4983     1253      8 |  0.765 % |
|      2077 |    3749     9193    37629 |     5481     1974      8 |  1.239 % |
|      3216 |    3742     9177    37581 |     6029     3098      9 |  1.423 % |
|      4924 |    3742     9177    37581 |     6632     4806     10 |  1.423 % |
|      7486 |    3742     9177    37581 |     7296     3893     11 |  1.423 % |
|     11330 |    3742     9177    37581 |     8025     3918     10 |  1.423 % |
|     17096 |    3742     9177    37581 |     8828     5498     10 |  1.423 % |
|     25745 |    3742     9177    37581 |     9711     5121     11 |  1.423 % |
|     38719 |    3651     7513    29166 |    10682     2233      8 |  3.820 % |
===============================================================================
restarts              : 136
conflicts             : 46278          (72941 /sec)
decisions             : 160909         (0.00 % random) (253616 /sec)
propagations          : 3471097        (5470956 /sec)
conflict literals     : 568625         (30.78 % deleted)
Memory used           : 7.00 MB
CPU time              : 0.634459 s

UNSATISFIABLE
